Solver command line: ['/usr/local/bin/gurobi.sh']

Set parameter WLSAccessID
Set parameter WLSSecret
Set parameter LicenseID to value 2606900
Academic license 2606900 - for non-commercial use only - registered to so___@htwk-leipzig.de
Read LP format model from file /var/folders/jf/5sh4zzv94dxbcz8g7tg2jq5h0000gn/T/tmpiirarzqa.pyomo.lp
Reading time = 2.13 seconds
objective: 967944 rows, 875999 columns, 2185566 nonzeros
Set parameter MIPGap to value 0.02
Gurobi Optimizer version 12.0.1 build v12.0.1rc0 (mac64[rosetta2] - Darwin 24.4.0 24E263)

CPU model: Apple M3
Thread count: 8 physical cores, 8 logical processors, using up to 8 threads

Non-default parameters:
MIPGap  0.02

Academic license 2606900 - for non-commercial use only - registered to so___@htwk-leipzig.de
Optimize a model with 967944 rows, 875999 columns and 2185566 nonzeros
Model fingerprint: 0xa9d3a4bb
Model has 8759 quadratic constraints
Variable types: 753360 continuous, 122639 integer (105120 binary)
Coefficient statistics:
  Matrix range     [7e-03, 2e+02]
  QMatrix range    [1e+00, 1e+00]
  Objective range  [1e-02, 3e+02]
  Bounds range     [1e+00, 3e+00]
  RHS range        [8e-05, 1e+04]
Presolve removed 774590 rows and 656360 columns
Presolve time: 0.44s
Presolved: 193354 rows, 219639 columns, 611892 nonzeros
Variable types: 145221 continuous, 74418 integer (65658 binary)
Performing another presolve...
Presolve removed 70088 rows and 70088 columns
Presolve time: 4.80s
Deterministic concurrent LP optimizer: primal and dual simplex
Showing primal log only...


Root simplex log...

Iteration    Objective       Primal Inf.    Dual Inf.      Time
       0    4.0071648e+07   5.822589e+06   7.058924e+13      6s
Concurrent spin time: 0.09s

Solved with dual simplex

Root simplex log...

Iteration    Objective       Primal Inf.    Dual Inf.      Time
   63808    1.9170201e+07   0.000000e+00   0.000000e+00      9s

Root relaxation: objective 1.917020e+07, 63808 iterations, 2.84 seconds (4.81 work units)
Total elapsed time = 8.86s (DegenMoves)

    Nodes    |    Current Node    |     Objective Bounds      |     Work
 Expl Unexpl |  Obj  Depth IntInf | Incumbent    BestBd   Gap | It/Node Time

     0     0 1.9170e+07    0  483          - 1.9170e+07      -     -   10s
H    0     0                    1.942822e+07 1.9170e+07  1.33%     -   11s

Explored 1 nodes (70296 simplex iterations) in 11.25 seconds (20.33 work units)
Thread count was 8 (of 8 available processors)

Solution count 1: 1.94282e+07 

Optimal solution found (tolerance 2.00e-02)
Best objective 1.942821930339e+07, best bound 1.917020066009e+07, gap 1.3281%

